Route #1: 26 7 35 8 52 34 46
Route #2: 27 13 54 19 59 14
Route #3: 53 11 38 10 58
Route #4: 12 9 25 32 40
Route #5: 39 31 55 18 50 44 3
Route #6: 17 51 16 49 24 56 23 63
Route #7: 1 43 41 42 64 22 61
Route #8: 21 47 36 60 20 37 15 57
Route #9: 4 45 29 5 48 30
Route #10: 2 28 62 33 6
Cost 824